c n-queens.cnf
c
p cnf 16 60
1 -2 -3 -4 0
-1 2 -3 -4 0
-1 -2 3 -4 0
-1 -2 -3 4 0
5 -6 -7 -8 0
-5 6 -7 -8 0
-5 -6 7 -8 0
-5 -6 -7 8 0
9 -10 -11 -12 0
-9 10 -11 -12 0
-9 -10 11 -12 0
-9 -10 -11 12 0
13 -14 -15 -16 0
-13 14 -15 -16 0
-13 -14 15 -16 0
-13 -14 -15 16 0
1 -5 -9 -13 0
-1 5 -9 -13 0
-1 -5 9 -13 0
-1 -5 -9 13 0
2 -6 -10 -14 0
-2 6 -10 -14 0
-2 -6 10 -14 0
-2 -6 -10 14 0
3 -7 -11 -15 0
-3 7 -11 -15 0
-3 -7 11 -15 0
-3 -7 -11 15 0
4 -8 -12 -16 0
-4 8 -12 -16 0
-4 -8 12 -16 0
-4 -8 -12 16 0
1 -6 -11 -16 0
2 -7 -12 0
2 -5 0
3 -8 0
3 -6 -9 0
4 -7 -10 -13 0
5 -10 -15 0
-2 5 0
-1 6 -11 -16 0
-3 6 -9 0
-2 7 -12 0
-4 7 -10 -13 0
-3 8 0
8 -11 -14 0
9 -14 0
-3 -6 9 0
-5 10 -15 0
-4 -7 10 -13 0
-1 -6 11 -16 0
-8 11 -14 0
-2 -7 12 0
12 -15 0
-4 -7 -10 13 0
-9 14 0
-8 -11 14 0
-5 -10 15 0
-12 15 0
-1 -6 -11 16 0
